p cnf 657 1113
a 21 22 23 24 25 26 27 28 29 31 32 33 34 35 36 37 38 39 40 41 42 43 44 45 46 47 48 49 50 51 52 53 54 55 56 57 58 59 60 61 62 63 64 65 66 67 68 69 70 72 73 74 75 76 78 80 81 82 83 84 0
e 1 2 3 4 5 6 7 8 9 10 11 12 13 14 15 16 17 18 19 20 30 71 77 79 85 86 87 88 89 90 91 92 93 94 95 96 97 98 99 100 101 102 103 104 105 106 107 108 109 110 111 112 113 114 115 116 117 118 119 120 121 122 123 124 125 126 127 128 129 130 131 132 133 134 135 136 137 138 139 140 141 142 143 144 145 146 147 148 149 150 151 152 153 154 155 156 157 158 159 160 161 162 163 164 165 166 167 168 169 170 171 172 173 174 175 176 177 178 179 180 181 182 183 184 185 186 187 188 189 190 191 192 193 194 195 196 197 198 199 200 201 202 203 204 205 206 207 208 209 210 211 212 213 214 215 216 217 218 219 220 221 222 223 224 225 226 227 228 229 230 231 232 233 234 235 236 237 238 239 240 241 242 243 244 245 246 247 248 249 250 251 252 253 254 255 256 257 258 259 260 261 262 263 264 265 266 267 268 269 270 271 272 273 274 275 276 277 278 279 280 281 282 283 284 285 286 287 288 289 290 291 292 293 294 295 296 297 298 299 300 301 302 303 304 305 306 307 308 309 310 311 312 313 314 315 316 317 318 319 320 321 322 323 324 325 326 327 328 329 330 331 332 333 334 335 336 337 338 339 340 341 342 343 344 345 346 347 348 349 350 351 352 353 354 355 356 357 358 359 360 361 362 363 364 365 366 367 368 369 370 371 372 373 374 375 376 377 378 379 380 381 382 383 384 385 386 387 388 389 390 391 392 393 394 395 396 397 398 399 400 401 402 403 404 405 406 407 408 409 410 411 412 413 414 415 416 417 418 419 420 421 422 423 424 425 426 427 428 429 430 431 432 433 434 435 436 437 438 439 440 441 442 443 444 445 446 447 448 449 450 451 452 453 454 455 456 457 458 459 460 461 462 463 464 465 466 467 468 469 470 471 472 473 474 475 476 477 478 479 480 481 482 483 484 485 486 487 488 489 490 491 492 493 494 495 496 497 498 499 500 501 502 503 504 505 506 507 508 509 510 511 512 513 514 515 516 517 518 519 520 521 522 523 524 525 526 527 528 529 530 531 532 533 534 535 536 537 538 539 540 541 542 543 544 545 546 547 548 549 550 551 552 553 554 555 556 557 558 559 560 561 562 563 564 565 566 567 568 569 570 571 572 573 574 575 576 577 578 579 580 581 582 583 584 585 586 587 588 589 590 591 592 593 594 595 596 597 598 599 600 601 602 603 604 605 606 607 608 609 610 611 612 613 614 615 616 617 618 619 620 621 622 623 624 625 626 627 628 629 630 631 632 633 634 635 636 637 638 639 640 641 642 643 644 645 646 647 648 649 650 651 652 653 654 655 656 657 0
-657 0
657 -370 0
657 -656 0
-655 -654 -653 -652 -651 -647 -643 -638 -634 -629 -624 -612 -608 -596 -591 -579 -567 656 0
655 17 0
655 20 0
654 14 0
654 19 0
653 3 0
653 18 0
652 1 0
652 2 0
651 -650 0
651 17 0
651 18 0
16 -598 -597 -649 -648 650 0
649 -603 0
649 15 0
648 -630 0
648 9 0
647 -646 0
647 14 0
647 18 0
15 -581 -580 -645 -644 646 0
645 -586 0
645 16 0
644 -639 0
644 9 0
643 -642 0
643 14 0
643 20 0
13 -585 -584 -641 -640 642 0
641 -582 0
641 8 0
640 -639 0
640 12 0
5 -589 -588 639 0
638 -637 0
638 2 0
638 20 0
12 -618 -617 -636 -635 637 0
636 -615 0
636 13 0
635 -625 0
635 8 0
634 -633 0
634 17 0
634 19 0
11 -602 -601 -632 -631 633 0
632 -599 0
632 6 0
631 -630 0
631 10 0
7 -606 -605 630 0
629 -628 0
629 2 0
629 19 0
10 -614 -613 -627 -626 628 0
627 -619 0
627 11 0
626 -625 0
626 6 0
9 -622 -621 625 0
624 -623 0
624 2 0
624 18 0
9 -622 -621 -620 -616 623 0
622 12 0
622 16 0
621 10 0
621 15 0
620 -619 0
620 16 0
12 -618 -617 619 0
618 10 0
618 13 0
617 8 0
617 9 0
616 -615 0
616 15 0
10 -614 -613 615 0
614 6 0
614 9 0
613 11 0
613 12 0
612 -611 0
612 3 0
612 20 0
8 -573 -572 -610 -609 611 0
610 -570 0
610 13 0
609 -592 0
609 12 0
608 -607 0
608 1 0
608 17 0
7 -606 -605 -604 -600 607 0
606 16 0
606 4 0
605 11 0
605 5 0
604 -603 0
604 5 0
11 -602 -601 603 0
602 16 0
602 6 0
601 10 0
601 7 0
600 -599 0
600 4 0
16 -598 -597 599 0
598 11 0
598 15 0
597 7 0
597 9 0
596 -595 0
596 3 0
596 19 0
6 -569 -568 -594 -593 595 0
594 -574 0
594 11 0
593 -592 0
593 10 0
4 -577 -576 592 0
591 -590 0
591 1 0
591 14 0
5 -589 -588 -587 -583 590 0
589 7 0
589 13 0
588 15 0
588 4 0
587 -586 0
587 7 0
13 -585 -584 586 0
585 15 0
585 8 0
584 12 0
584 5 0
583 -582 0
583 4 0
15 -581 -580 582 0
581 5 0
581 9 0
580 16 0
580 13 0
579 -578 0
579 1 0
579 3 0
4 -577 -576 -575 -571 578 0
577 6 0
577 5 0
576 8 0
576 7 0
575 -574 0
575 7 0
8 -573 -572 574 0
573 6 0
573 13 0
572 12 0
572 4 0
571 -570 0
571 5 0
6 -569 -568 570 0
569 10 0
569 4 0
568 11 0
568 8 0
567 -425 0
567 -472 0
567 -519 0
567 -566 0
-565 -542 566 0
565 -420 0
565 -421 0
565 -564 0
565 -422 0
565 -423 0
-563 -556 -549 564 0
563 -557 0
563 -558 0
563 -559 0
563 -560 0
563 -561 0
563 -562 0
563 -76 0
563 -65 0
-19 -51 562 0
19 -48 561 0
14 -66 560 0
-14 -69 559 0
-68 -77 558 0
-67 77 557 0
556 -550 0
556 -551 0
556 -552 0
556 -553 0
556 -554 0
556 -555 0
556 -75 0
556 -59 0
-19 -49 555 0
19 -47 554 0
-14 -63 553 0
14 -60 552 0
-61 77 551 0
-62 -77 550 0
549 -543 0
549 -544 0
549 -545 0
549 -546 0
549 -547 0
549 -548 0
549 -74 0
549 -53 0
19 -46 548 0
-19 -50 547 0
-14 -57 546 0
-56 -77 545 0
14 -54 544 0
-55 77 543 0
542 -541 0
542 -393 0
542 -394 0
542 -395 0
542 -396 0
-540 -533 -526 541 0
540 -534 0
540 -535 0
540 -536 0
540 -537 0
540 -538 0
540 -539 0
540 -73 0
540 -41 0
-23 19 539 0
-14 -45 538 0
14 -42 537 0
-19 -26 536 0
-44 -77 535 0
-43 77 534 0
533 -527 0
533 -528 0
533 -529 0
533 -530 0
533 -531 0
533 -532 0
533 -72 0
533 -35 0
-22 19 532 0
-19 -24 531 0
-38 -77 530 0
-14 -39 529 0
-36 14 528 0
-37 77 527 0
526 -520 0
526 -521 0
526 -522 0
526 -523 0
526 -524 0
526 -525 0
526 -70 0
526 -28 0
-21 19 525 0
-14 -33 524 0
-29 14 523 0
-32 -77 522 0
-19 -25 521 0
-31 77 520 0
-518 -495 519 0
518 -517 0
518 -420 0
518 -421 0
518 -422 0
518 -423 0
-516 -509 -502 517 0
516 -510 0
516 -511 0
516 -512 0
516 -513 0
516 -514 0
516 -515 0
516 -65 0
516 -64 0
-1 -51 515 0
-2 -69 514 0
1 -48 513 0
2 -66 512 0
30 -67 511 0
-30 -68 510 0
509 -503 0
509 -504 0
509 -505 0
509 -506 0
509 -507 0
509 -508 0
509 -59 0
509 -58 0
-1 -49 508 0
2 -60 507 0
1 -47 506 0
-2 -63 505 0
-30 -62 504 0
30 -61 503 0
502 -496 0
502 -497 0
502 -498 0
502 -499 0
502 -500 0
502 -501 0
502 -53 0
502 -52 0
-1 -50 501 0
1 -46 500 0
-2 -57 499 0
2 -54 498 0
-30 -56 497 0
30 -55 496 0
495 -494 0
495 -393 0
495 -394 0
495 -395 0
495 -396 0
-493 -486 -479 494 0
493 -487 0
493 -488 0
493 -489 0
493 -490 0
493 -491 0
493 -492 0
493 -41 0
493 -40 0
-1 -26 492 0
-23 1 491 0
2 -42 490 0
-2 -45 489 0
-30 -44 488 0
30 -43 487 0
486 -480 0
486 -481 0
486 -482 0
486 -483 0
486 -484 0
486 -485 0
486 -35 0
486 -34 0
-37 30 485 0
-30 -38 484 0
-36 2 483 0
-1 -24 482 0
-2 -39 481 0
-22 1 480 0
479 -473 0
479 -474 0
479 -475 0
479 -476 0
479 -477 0
479 -478 0
479 -28 0
479 -27 0
-21 1 478 0
-2 -33 477 0
-29 2 476 0
-31 30 475 0
-1 -25 474 0
-30 -32 473 0
-471 -448 472 0
471 -470 0
471 -420 0
471 -421 0
471 -422 0
471 -423 0
-469 -462 -455 470 0
469 -463 0
469 -464 0
469 -465 0
469 -466 0
469 -467 0
469 -468 0
469 -84 0
469 -76 0
-20 -51 468 0
20 -48 467 0
-68 -79 466 0
-17 -69 465 0
-67 79 464 0
17 -66 463 0
462 -456 0
462 -457 0
462 -458 0
462 -459 0
462 -460 0
462 -461 0
462 -83 0
462 -75 0
20 -47 461 0
-20 -49 460 0
-17 -63 459 0
17 -60 458 0
-61 79 457 0
-62 -79 456 0
455 -449 0
455 -450 0
455 -451 0
455 -452 0
455 -453 0
455 -454 0
455 -82 0
455 -74 0
-17 -57 454 0
-56 -79 453 0
-20 -50 452 0
20 -46 451 0
17 -54 450 0
-55 79 449 0
448 -447 0
448 -393 0
448 -394 0
448 -395 0
448 -396 0
-446 -439 -432 447 0
446 -440 0
446 -441 0
446 -442 0
446 -443 0
446 -444 0
446 -445 0
446 -81 0
446 -73 0
-23 20 445 0
-20 -26 444 0
-44 -79 443 0
-43 79 442 0
-17 -45 441 0
17 -42 440 0
439 -433 0
439 -434 0
439 -435 0
439 -436 0
439 -437 0
439 -438 0
439 -80 0
439 -72 0
-37 79 438 0
-38 -79 437 0
-36 17 436 0
-20 -24 435 0
-22 20 434 0
-17 -39 433 0
432 -426 0
432 -427 0
432 -428 0
432 -429 0
432 -430 0
432 -431 0
432 -78 0
432 -70 0
-17 -33 431 0
-21 20 430 0
-32 -79 429 0
-20 -25 428 0
-31 79 427 0
-29 17 426 0
-424 -397 425 0
424 -419 0
424 -420 0
424 -421 0
424 -422 0
424 -423 0
-48 47 423 0
-47 46 422 0
-49 51 421 0
-50 49 420 0
-418 -411 -404 419 0
418 -412 0
418 -413 0
418 -414 0
418 -415 0
418 -416 0
418 -417 0
418 -76 0
418 -65 0
-18 -51 417 0
18 -48 416 0
-3 -69 415 0
-68 -71 414 0
3 -66 413 0
-67 71 412 0
411 -405 0
411 -406 0
411 -407 0
411 -408 0
411 -409 0
411 -410 0
411 -75 0
411 -59 0
3 -60 410 0
18 -47 409 0
-18 -49 408 0
-3 -63 407 0
-61 71 406 0
-62 -71 405 0
404 -398 0
404 -399 0
404 -400 0
404 -401 0
404 -402 0
404 -403 0
404 -74 0
404 -53 0
-18 -50 403 0
18 -46 402 0
-3 -57 401 0
3 -54 400 0
-56 -71 399 0
-55 71 398 0
397 -392 0
397 -393 0
397 -394 0
397 -395 0
397 -396 0
-25 24 396 0
-23 22 395 0
-22 21 394 0
-24 26 393 0
-391 -384 -377 392 0
391 -385 0
391 -386 0
391 -387 0
391 -388 0
391 -389 0
391 -390 0
391 -73 0
391 -41 0
-43 71 390 0
-23 18 389 0
-18 -26 388 0
3 -42 387 0
-44 -71 386 0
-3 -45 385 0
384 -378 0
384 -379 0
384 -380 0
384 -381 0
384 -382 0
384 -383 0
384 -72 0
384 -35 0
-38 -71 383 0
-36 3 382 0
-18 -24 381 0
-22 18 380 0
-37 71 379 0
-3 -39 378 0
377 -371 0
377 -372 0
377 -373 0
377 -374 0
377 -375 0
377 -376 0
377 -70 0
377 -28 0
-31 71 376 0
-32 -71 375 0
-3 -33 374 0
-29 3 373 0
-18 -25 372 0
-21 18 371 0
-369 -280 -233 -186 -139 370 0
369 -292 0
369 -304 0
369 -309 0
369 -321 0
369 -326 0
369 -331 0
369 -335 0
369 -347 0
369 -351 0
369 -356 0
369 -360 0
369 -364 0
369 -365 0
369 -366 0
369 -367 0
369 -368 0
-17 -20 368 0
-14 -19 367 0
-1 -2 366 0
-3 -18 365 0
-1 -3 -363 364 0
363 -361 0
363 -362 0
363 -340 0
363 -341 0
363 -4 0
-5 -338 362 0
-7 -352 361 0
-1 -14 -359 360 0
359 -357 0
359 -358 0
359 -297 0
359 -298 0
359 -5 0
-4 -305 358 0
-7 -295 357 0
-3 -19 -355 356 0
355 -353 0
355 -354 0
355 -336 0
355 -337 0
355 -6 0
-10 -342 354 0
-11 -352 353 0
352 -344 0
352 -345 0
352 -8 0
-1 -17 -350 351 0
350 -348 0
350 -349 0
350 -285 0
350 -286 0
350 -7 0
-4 -322 349 0
-5 -283 348 0
-3 -20 -346 347 0
346 -339 0
346 -343 0
346 -344 0
346 -345 0
346 -8 0
-6 -13 345 0
-4 -12 344 0
-12 -342 343 0
342 -340 0
342 -341 0
342 -4 0
-5 -6 341 0
-7 -8 340 0
-13 -338 339 0
338 -336 0
338 -337 0
338 -6 0
-4 -10 337 0
-8 -11 336 0
-2 -18 -334 335 0
334 -332 0
334 -333 0
334 -314 0
334 -315 0
334 -9 0
-15 -312 333 0
-16 -327 332 0
-2 -19 -330 331 0
330 -328 0
330 -329 0
330 -310 0
330 -311 0
330 -10 0
-6 -316 329 0
-11 -327 328 0
327 -318 0
327 -319 0
327 -12 0
-17 -19 -325 326 0
325 -323 0
325 -324 0
325 -281 0
325 -282 0
325 -11 0
-10 -287 324 0
-6 -322 323 0
322 -289 0
322 -290 0
322 -16 0
-2 -20 -320 321 0
320 -313 0
320 -317 0
320 -318 0
320 -319 0
320 -12 0
-10 -13 319 0
-8 -9 318 0
-8 -316 317 0
316 -314 0
316 -315 0
316 -9 0
-12 -16 315 0
-10 -15 314 0
-13 -312 313 0
312 -310 0
312 -311 0
312 -10 0
-6 -9 311 0
-11 -12 310 0
-14 -20 -308 309 0
308 -306 0
308 -307 0
308 -293 0
308 -294 0
308 -13 0
-12 -299 307 0
-8 -305 306 0
305 -301 0
305 -302 0
305 -15 0
-14 -18 -303 304 0
303 -296 0
303 -300 0
303 -301 0
303 -302 0
303 -15 0
-5 -9 302 0
-13 -16 301 0
-9 -299 300 0
299 -297 0
299 -298 0
299 -5 0
-7 -13 298 0
-4 -15 297 0
-16 -295 296 0
295 -293 0
295 -294 0
295 -13 0
-8 -15 294 0
-5 -12 293 0
-17 -18 -291 292 0
291 -284 0
291 -288 0
291 -289 0
291 -290 0
291 -16 0
-11 -15 290 0
-7 -9 289 0
-9 -287 288 0
287 -285 0
287 -286 0
287 -7 0
-4 -16 286 0
-5 -11 285 0
-15 -283 284 0
283 -281 0
283 -282 0
283 -11 0
-6 -16 282 0
-7 -10 281 0
280 -256 0
280 -279 0
-137 -136 -278 -135 -134 279 0
278 -263 0
278 -270 0
278 -277 0
76 84 -276 -275 -274 -273 -272 -271 277 0
276 51 0
276 20 0
275 48 0
275 -20 0
274 79 0
274 68 0
273 69 0
273 17 0
272 67 0
272 -79 0
271 66 0
271 -17 0
75 83 -269 -268 -267 -266 -265 -264 270 0
269 47 0
269 -20 0
268 49 0
268 20 0
267 63 0
267 17 0
266 60 0
266 -17 0
265 61 0
265 -79 0
264 79 0
264 62 0
74 82 -262 -261 -260 -259 -258 -257 263 0
262 57 0
262 17 0
261 79 0
261 56 0
260 50 0
260 20 0
259 46 0
259 -20 0
258 54 0
258 -17 0
257 55 0
257 -79 0
-110 -109 -108 -107 -255 256 0
255 -240 0
255 -247 0
255 -254 0
81 73 -253 -252 -251 -250 -249 -248 254 0
253 26 0
253 20 0
252 23 0
252 -20 0
251 44 0
251 79 0
250 43 0
250 -79 0
249 45 0
249 17 0
248 42 0
248 -17 0
72 80 -246 -245 -244 -243 -242 -241 247 0
246 -79 0
246 37 0
245 79 0
245 38 0
244 36 0
244 -17 0
243 20 0
243 24 0
242 22 0
242 -20 0
241 39 0
241 17 0
78 70 -239 -238 -237 -236 -235 -234 240 0
239 33 0
239 17 0
238 21 0
238 -20 0
237 79 0
237 32 0
236 20 0
236 25 0
235 -79 0
235 31 0
234 29 0
234 -17 0
233 -209 0
233 -232 0
-137 -136 -135 -134 -231 232 0
231 -216 0
231 -223 0
231 -230 0
76 65 -229 -228 -227 -226 -225 -224 230 0
229 51 0
229 19 0
228 48 0
228 -19 0
227 66 0
227 -14 0
226 69 0
226 14 0
225 77 0
225 68 0
224 67 0
224 -77 0
59 75 -222 -221 -220 -219 -218 -217 223 0
222 49 0
222 19 0
221 47 0
221 -19 0
220 63 0
220 14 0
219 60 0
219 -14 0
218 61 0
218 -77 0
217 77 0
217 62 0
53 74 -215 -214 -213 -212 -211 -210 216 0
215 46 0
215 -19 0
214 50 0
214 19 0
213 57 0
213 14 0
212 77 0
212 56 0
211 54 0
211 -14 0
210 55 0
210 -77 0
-110 -109 -108 -107 -208 209 0
208 -193 0
208 -200 0
208 -207 0
73 41 -206 -205 -204 -203 -202 -201 207 0
206 23 0
206 -19 0
205 45 0
205 14 0
204 42 0
204 -14 0
203 26 0
203 19 0
202 44 0
202 77 0
201 43 0
201 -77 0
35 72 -199 -198 -197 -196 -195 -194 200 0
199 22 0
199 -19 0
198 19 0
198 24 0
197 77 0
197 38 0
196 39 0
196 14 0
195 36 0
195 -14 0
194 -77 0
194 37 0
28 70 -192 -191 -190 -189 -188 -187 193 0
192 21 0
192 -19 0
191 33 0
191 14 0
190 29 0
190 -14 0
189 77 0
189 32 0
188 19 0
188 25 0
187 -77 0
187 31 0
186 -162 0
186 -185 0
-137 -136 -135 -134 -184 185 0
184 -169 0
184 -176 0
184 -183 0
76 65 -182 -181 -180 -179 -178 -177 183 0
182 51 0
182 18 0
181 48 0
181 -18 0
180 69 0
180 3 0
179 71 0
179 68 0
178 66 0
178 -3 0
177 67 0
177 -71 0
59 75 -175 -174 -173 -172 -171 -170 176 0
175 60 0
175 -3 0
174 47 0
174 -18 0
173 49 0
173 18 0
172 63 0
172 3 0
171 61 0
171 -71 0
170 71 0
170 62 0
53 74 -168 -167 -166 -165 -164 -163 169 0
168 50 0
168 18 0
167 46 0
167 -18 0
166 57 0
166 3 0
165 54 0
165 -3 0
164 71 0
164 56 0
163 55 0
163 -71 0
-110 -109 -108 -107 -161 162 0
161 -146 0
161 -153 0
161 -160 0
73 41 -159 -158 -157 -156 -155 -154 160 0
159 43 0
159 -71 0
158 26 0
158 18 0
157 23 0
157 -18 0
156 42 0
156 -3 0
155 44 0
155 71 0
154 45 0
154 3 0
35 72 -152 -151 -150 -149 -148 -147 153 0
152 71 0
152 38 0
151 36 0
151 -3 0
150 18 0
150 24 0
149 22 0
149 -18 0
148 -71 0
148 37 0
147 39 0
147 3 0
28 70 -145 -144 -143 -142 -141 -140 146 0
145 -71 0
145 31 0
144 71 0
144 32 0
143 33 0
143 3 0
142 29 0
142 -3 0
141 18 0
141 25 0
140 21 0
140 -18 0
139 -111 0
139 -138 0
-137 -136 -135 -134 -133 138 0
137 48 0
137 -47 0
136 47 0
136 -46 0
135 49 0
135 -51 0
134 50 0
134 -49 0
133 -118 0
133 -125 0
133 -132 0
65 64 -131 -130 -129 -128 -127 -126 132 0
131 51 0
131 1 0
130 69 0
130 2 0
129 48 0
129 -1 0
128 66 0
128 -2 0
127 67 0
127 -30 0
126 68 0
126 30 0
59 58 -124 -123 -122 -121 -120 -119 125 0
124 49 0
124 1 0
123 60 0
123 -2 0
122 47 0
122 -1 0
121 63 0
121 2 0
120 62 0
120 30 0
119 61 0
119 -30 0
53 52 -117 -116 -115 -114 -113 -112 118 0
117 50 0
117 1 0
116 46 0
116 -1 0
115 57 0
115 2 0
114 54 0
114 -2 0
113 56 0
113 30 0
112 55 0
112 -30 0
-110 -109 -108 -107 -106 111 0
110 25 0
110 -24 0
109 23 0
109 -22 0
108 22 0
108 -21 0
107 24 0
107 -26 0
106 -91 0
106 -98 0
106 -105 0
40 41 -104 -103 -102 -101 -100 -99 105 0
104 26 0
104 1 0
103 23 0
103 -1 0
102 42 0
102 -2 0
101 45 0
101 2 0
100 44 0
100 30 0
99 43 0
99 -30 0
35 34 -97 -96 -95 -94 -93 -92 98 0
97 37 0
97 -30 0
96 38 0
96 30 0
95 36 0
95 -2 0
94 1 0
94 24 0
93 39 0
93 2 0
92 22 0
92 -1 0
28 27 -90 -89 -88 -87 -86 -85 91 0
90 21 0
90 -1 0
89 33 0
89 2 0
88 29 0
88 -2 0
87 31 0
87 -30 0
86 1 0
86 25 0
85 30 0
85 32 0
